<number of tasks>
20

<cycle time>
1000

<order strength>
0,516


<task times>
1 27
2 123
3 188
4 152
5 210
6 206
7 234
8 178
9 82
10 126
11 93
12 135
13 159
14 177
15 196
16 165
17 104
18 157
19 87
20 140

<precedence relations>
1,9
2,9
3,9
4,7
5,6
5,8
6,9
7,9
8,10
8,11
9,12
9,13
9,14
9,15
10,17
12,17
13,16
16,19
16,20
17,18

<end>
